18 16

11 15 15 12 12 9 7 13 14 9 9 4
16 11 5 11 3 9 14 6
8 9 12 6 7 8 14 8
13 13 15 2 1 9 5 9
5 2 7 6 1 5 8 2
8 12 2 8 3 3 4 14 5 13
14 5 16 9 8 12 9 15
12 11 2 3 15 8 5 3
16 7 6 3 3 13 5 4
8 5 6 13 11 5 14 3 3 6 10 9
10 15 12 9 6 8 14 15 13 6
4 9 14 15 7 14 16 3 6 11 3 9
14 7 8 4 6 5 11 11 7 2
9 9 8 14 13 2 12 15 4 7 10 12
8 7 3 12 2 7 12 7
7 12 10 12 2 6 1 7
12 12 8 6 6 2 16 14 14 12
6 14 4 6 5 4 11 15 14 9
